15
270 3179 2991 2840 3031 3421 3738 4947 6226 3456 5432 7657 1234 6235
2903 2715 2564 2755 3144 4153 5362 6641 9845 2365 7632 6354 8427
504 655 908 1299 2237 3446 3682 1534 1784 2847 4726 2837
151 423 723 2040 3249 3485 1234 4543 6546 3453 5466
272 571 1888 3098 3334 5834 3762 9458 2635 7264
241 1560 2770 3006 7234 1273 3472 9174 1734
1617 2827 3063 3479 9123 2871 4827 9344
1274 1510 2345 2341 3435 1234 2345
236 1234 543 565 742 123
1234 5432 5436 234 535
2345 6547 3456 7654
234 432 654
123 432
564
